g3 3 1 0	# problem weapons
 65 12 1 0 0	# vars, constraints, objectives, ranges, eqns
 0 1	# nonlinear constraints, objectives
 0 0	# network constraints: nonlinear, linear
 0 65 0	# nonlinear vars in constraints, objectives, both
 0 0 0 1	# linear network variables; functions; arith, flags
 0 0 0 0 0	# discrete variables: binary, integer, nonlinear (b,c,o)
 90 65	# nonzeros in Jacobian, gradients
 0 0	# max name lengths: constraints, variables
 0 0 0 0 0	# common exprs: b,c,o,c1,o1
b
2 0
2 0
2 0
2 0
2 0
2 0
2 0
2 0
2 0
2 0
2 0
2 0
2 0
2 0
2 0
2 0
2 0
2 0
2 0
2 0
2 0
2 0
2 0
2 0
2 0
2 0
2 0
2 0
2 0
2 0
2 0
2 0
2 0
2 0
2 0
2 0
2 0
2 0
2 0
2 0
2 0
2 0
2 0
2 0
2 0
2 0
2 0
2 0
2 0
2 0
2 0
2 0
2 0
2 0
2 0
2 0
2 0
2 0
2 0
2 0
2 0
2 0
2 0
2 0
2 0
x65
0 10
1 10
2 10
3 10
4 10
5 10
6 5
7 5
8 5
9 5
10 5
11 5
12 5
13 5
14 5
15 5
16 5
17 5
18 5
19 5
20 5
21 5
22 5
23 5
24 15
25 15
26 15
27 15
28 15
29 15
30 15
31 15
32 15
33 15
34 15
35 15
36 15
37 15
38 15
39 15
40 15
41 15
42 15
43 15
44 7.5
45 7.5
46 7.5
47 7.5
48 7.5
49 7.5
50 7.5
51 12.5
52 12.5
53 12.5
54 12.5
55 12.5
56 12.5
57 12.5
58 12.5
59 12.5
60 12.5
61 12.5
62 12.5
63 12.5
64 12.5
r
1 200
1 100
1 300
1 150
1 250
2 30
2 100
2 40
2 50
2 70
2 35
2 10
C0
n0
C1
n0
C2
n0
C3
n0
C4
n0
C5
n0
C6
n0
C7
n0
C8
n0
C9
n0
C10
n0
C11
n0
O0 0
o54
21
o16
o2
o2
o2
n-60
o5
n0.84
v6
o5
n0.96
v24
o5
n0.92
v51
o2
o2
o2
o2
n50
o5
n0.95
v0
o5
n0.83
v7
o5
n0.95
v25
o5
n0.94
v52
o2
o2
o2
n50
o5
n0.85
v8
o5
n0.96
v26
o5
n0.92
v53
o2
o2
o2
n75
o5
n0.84
v9
o5
n0.96
v27
o5
n0.95
v54
o2
o2
o2
n40
o5
n0.85
v10
o5
n0.96
v28
o5
n0.95
v55
o2
o2
o2
o2
n60
o5
n0.85
v1
o5
n0.81
v11
o5
n0.9
v29
o5
n0.98
v56
o2
o2
o2
o2
n35
o5
n0.9
v2
o5
n0.81
v12
o5
n0.92
v30
o5
n0.98
v57
o2
o2
o2
n30
o5
n0.85
v3
o5
n0.82
v13
o5
n0.91
v31
o2
o2
o2
n25
o5
n0.8
v4
o5
n0.8
v14
o5
n0.92
v32
o2
o2
o2
o2
n150
o5
n0.86
v15
o5
n0.95
v33
o5
n0.96
v44
o5
n0.9
v58
o2
o2
o2
n30
o5
n0.99
v34
o5
n0.91
v45
o5
n0.95
v59
o2
o2
o2
o2
n45
o5
n0.98
v16
o5
n0.98
v35
o5
n0.92
v46
o5
n0.96
v60
o2
o2
o2
n125
o5
n0.99
v36
o5
n0.91
v47
o5
n0.91
v61
o2
o2
o2
o2
n200
o5
n0.88
v17
o5
n0.98
v37
o5
n0.92
v48
o5
n0.98
v62
o2
o2
o2
o2
n200
o5
n0.87
v18
o5
n0.97
v38
o5
n0.98
v49
o5
n0.99
v63
o2
o2
o2
o2
n130
o5
n0.88
v19
o5
n0.98
v39
o5
n0.93
v50
o5
n0.99
v64
o2
o2
n100
o5
n0.85
v20
o5
n0.95
v40
o2
o2
o2
n100
o5
n0.95
v5
o5
n0.84
v21
o5
n0.92
v41
o2
o2
n100
o5
n0.85
v22
o5
n0.93
v42
o2
o2
n150
o5
n0.85
v23
o5
n0.92
v43
n-1755
k64
1
3
4
5
6
7
9
10
11
12
13
15
16
17
18
20
21
23
25
27
28
29
30
32
34
35
36
37
38
40
41
42
43
45
46
47
48
50
52
54
55
56
57
59
61
62
63
64
66
68
70
72
73
74
75
76
78
79
81
82
83
84
86
88
J0 6
0 1
1 1
2 1
3 1
4 1
5 1
J1 18
6 1
7 1
8 1
9 1
10 1
11 1
12 1
13 1
14 1
15 1
16 1
17 1
18 1
19 1
20 1
21 1
22 1
23 1
J2 20
24 1
25 1
26 1
27 1
28 1
29 1
30 1
31 1
32 1
33 1
34 1
35 1
36 1
37 1
38 1
39 1
40 1
41 1
42 1
43 1
J3 7
44 1
45 1
46 1
47 1
48 1
49 1
50 1
J4 14
51 1
52 1
53 1
54 1
55 1
56 1
57 1
58 1
59 1
60 1
61 1
62 1
63 1
64 1
J5 3
6 1
24 1
51 1
J6 4
1 1
11 1
29 1
56 1
J7 4
15 1
33 1
44 1
58 1
J8 4
17 1
37 1
48 1
62 1
J9 4
18 1
38 1
49 1
63 1
J10 4
19 1
39 1
50 1
64 1
J11 2
23 1
43 1
G0 65
0 0
1 0
2 0
3 0
4 0
5 0
6 0
7 0
8 0
9 0
10 0
11 0
12 0
13 0
14 0
15 0
16 0
17 0
18 0
19 0
20 0
21 0
22 0
23 0
24 0
25 0
26 0
27 0
28 0
29 0
30 0
31 0
32 0
33 0
34 0
35 0
36 0
37 0
38 0
39 0
40 0
41 0
42 0
43 0
44 0
45 0
46 0
47 0
48 0
49 0
50 0
51 0
52 0
53 0
54 0
55 0
56 0
57 0
58 0
59 0
60 0
61 0
62 0
63 0
64 0
